unsat
(define-fun inv-f ((m Int) (n Int) (x Int) (tmp Int) (m_0 Int) (m_1 Int) (m_2 Int) (m_3 Int) (n_0 Int) (x_0 Int) (x_1 Int) (x_2 Int)) Bool (and (or (not (= m m_1)) (not (= n n_0)) (not (= x x_1)) (>= (+ n_0 (* (- 1) x_1)) 1) (not (>= n_0 1)) (>= m_1 0)) (not (>= (+ m (* (- 1) x)) 1)) (>= m 0)))
48.75user 0.03system 0:48.80elapsed 99%CPU (0avgtext+0avgdata 103180maxresident)k
8inputs+8outputs (0major+20519minor)pagefaults 0swaps
